c Sudoku solution
p cnf 729 0
226 0
235 0
244 0
317 0
345 0
366 0
381 0
439 0
471 0
515 0
524 0
557 0
589 0
628 0
637 0
675 0
693 0
782 0
812 0
851 0
873 0
918 0
936 0
834 0
114 0
947 0
979 0
183 0
195 0
176 0
167 0
596 0
684 0
985 0
886 0
287 0
777 0
898 0
827 0
725 0
719 0
865 0
849 0
455 0
464 0
374 0
488 0
497 0
572 0
422 0
278 0
962 0
642 0
656 0
443 0
669 0
416 0
533 0
611 0
213 0
329 0
121 0
148 0
261 0
132 0
338 0
159 0
252 0
353 0
299 0
392 0
923 0
731 0
794 0
991 0
954 0
541 0
568 0
763 0
746 0
758 0
